c Created with the Wolfram Language : www.wolfram.com
c 
p edge 100 266
e 4 5
e 6 7
e 2 13
e 4 16
e 13 18
e 3 20
e 18 20
e 9 21
e 2 22
e 21 22
e 9 24
e 23 24
e 23 27
e 17 28
e 15 29
e 25 30
e 29 31
e 11 32
e 29 32
e 30 32
e 26 33
e 7 34
e 13 34
e 19 34
e 22 34
e 33 34
e 1 36
e 5 36
e 33 37
e 35 37
e 2 38
e 7 38
e 26 38
e 6 40
e 10 41
e 16 41
e 24 41
e 26 41
e 9 42
e 13 42
e 37 42
e 41 42
e 12 43
e 28 43
e 6 44
e 21 44
e 27 44
e 41 44
e 5 45
e 29 45
e 38 45
e 22 46
e 5 47
e 26 47
e 8 48
e 32 48
e 39 48
e 4 49
e 25 49
e 23 50
e 45 50
e 6 51
e 11 51
e 26 51
e 37 51
e 38 51
e 43 51
e 5 52
e 8 52
e 36 52
e 12 53
e 18 53
e 37 53
e 25 54
e 33 54
e 41 54
e 21 55
e 28 55
e 15 56
e 6 57
e 41 57
e 12 58
e 24 58
e 53 58
e 56 58
e 18 59
e 56 59
e 17 60
e 19 60
e 24 60
e 31 60
e 2 61
e 9 61
e 58 61
e 1 62
e 20 62
e 35 62
e 36 62
e 59 62
e 1 63
e 25 63
e 34 63
e 45 63
e 48 63
e 54 63
e 17 64
e 43 64
e 57 64
e 34 65
e 41 65
e 6 66
e 9 66
e 23 66
e 43 66
e 55 66
e 61 66
e 63 66
e 7 67
e 22 67
e 26 67
e 29 67
e 37 67
e 54 67
e 35 68
e 50 68
e 51 68
e 54 68
e 40 69
e 6 70
e 8 70
e 34 70
e 48 70
e 53 70
e 60 70
e 64 70
e 13 71
e 30 71
e 47 71
e 52 71
e 14 72
e 32 72
e 44 72
e 46 72
e 65 72
e 61 73
e 43 74
e 69 74
e 13 75
e 38 75
e 41 75
e 42 75
e 66 75
e 71 75
e 30 76
e 35 76
e 42 76
e 56 76
e 32 77
e 43 77
e 73 77
e 76 77
e 13 78
e 25 78
e 43 78
e 58 78
e 72 78
e 65 79
e 10 80
e 12 80
e 45 80
e 52 80
e 74 80
e 14 81
e 65 81
e 71 81
e 13 82
e 19 82
e 20 82
e 24 82
e 29 82
e 39 82
e 48 82
e 49 82
e 57 82
e 62 82
e 47 83
e 77 83
e 81 83
e 24 84
e 61 84
e 28 85
e 29 85
e 39 85
e 61 85
e 19 86
e 24 86
e 27 86
e 29 86
e 46 86
e 69 86
e 2 87
e 14 87
e 25 87
e 45 87
e 3 88
e 32 88
e 36 88
e 40 88
e 55 88
e 15 89
e 19 89
e 83 89
e 5 90
e 9 90
e 26 90
e 42 90
e 86 90
e 87 90
e 15 91
e 23 91
e 29 91
e 54 91
e 76 91
e 3 92
e 24 92
e 79 92
e 22 93
e 27 93
e 37 93
e 46 93
e 64 93
e 19 94
e 22 94
e 37 94
e 51 94
e 64 94
e 66 94
e 12 95
e 31 95
e 54 95
e 24 96
e 32 96
e 46 96
e 50 96
e 83 96
e 13 97
e 35 97
e 56 97
e 61 97
e 86 97
e 7 98
e 42 98
e 43 98
e 50 98
e 70 98
e 91 98
e 23 99
e 47 99
e 66 99
e 9 100
e 14 100
e 22 100
e 31 100
e 42 100
e 70 100
e 79 100
